
Gurobi 11.0.3 (linux64) logging started Sun Nov 24 19:43:24 2024

Set parameter LogFile to value "/home/yihong/Coding/OR_SUC/SUC_results_bigM100000_thread4/case24_ieee_rts_theta0.1_epsilon0.05_gurobi_seed1240000_num_gen100_N_WDR100_load_scaling_factor1_exact_T16quadra_cost.txt"
Set parameter TimeLimit to value 3600
Gurobi Optimizer version 11.0.3 build v11.0.3rc0 (linux64 - "Ubuntu 20.04.6 LTS")

CPU model: AMD EPYC 7532 32-Core Processor, instruction set [SSE2|AVX|AVX2]
Thread count: 64 physical cores, 128 logical processors, using up to 4 threads

Optimize a model with 38307 rows, 20041 columns and 883306 nonzeros
Model fingerprint: 0xff43471f
Model has 1600 quadratic constraints
Variable types: 18341 continuous, 1700 integer (1700 binary)
Coefficient statistics:
  Matrix range     [3e-04, 1e+05]
  QMatrix range    [2e-03, 8e-03]
  QLMatrix range   [3e-02, 6e+01]
  Objective range  [1e+00, 1e+00]
  Bounds range     [1e+00, 1e+00]
  RHS range        [1e+00, 1e+05]
Presolve removed 31382 rows and 8578 columns
Presolve time: 0.25s
Presolved: 6925 rows, 11463 columns, 39072 nonzeros
Presolved model has 1600 quadratic constraint(s)
Variable types: 9783 continuous, 1680 integer (1680 binary)

Root relaxation: objective 2.073186e+04, 5576 iterations, 0.13 seconds (0.20 work units)

    Nodes    |    Current Node    |     Objective Bounds      |     Work
 Expl Unexpl |  Obj  Depth IntInf | Incumbent    BestBd   Gap | It/Node Time

     0     0 20731.8600    0   10          - 20731.8600      -     -    0s
     0     0 171965.408    0  688          - 171965.408      -     -    0s
     0     0 172007.873    0  686          - 172007.873      -     -    0s
     0     0 378219.253    0  619          - 378219.253      -     -    1s
     0     0 378290.216    0  387          - 378290.216      -     -    1s
     0     0 379192.176    0  209          - 379192.176      -     -    1s
     0     0 379261.407    0  208          - 379261.407      -     -    1s
     0     0 379303.435    0  198          - 379303.435      -     -    1s
     0     0 379306.179    0  198          - 379306.179      -     -    1s
     0     2 379306.322    0  198          - 379306.322      -     -    1s
H  332   308                    380613.48870 379312.297  0.34%  17.1    3s
*  332   308             105    380613.48870 379312.297  0.34%  17.1    3s
H  437   268                    379403.96759 379316.392  0.02%  15.7    3s
*  437   268             117    379403.96759 379316.392  0.02%  15.7    3s

Cutting planes:
  Gomory: 11
  Implied bound: 276
  MIR: 135
  Flow cover: 438

Explored 471 nodes (23239 simplex iterations) in 4.25 seconds (5.90 work units)
Thread count was 4 (of 128 available processors)

Solution count 3: 379404 379404 380613 

Optimal solution found (tolerance 1.00e-03)
Warning: max constraint violation (2.8451e-07) exceeds tolerance
Best objective 3.794039675889e+05, best bound 3.793163923499e+05, gap 0.0231%
